10 45
1 2 3
1 3 14
1 4 15
1 5 29
1 6 6
1 7 22
1 8 16
1 9 9
1 10 8
2 3 4
2 4 7
2 5 27
2 6 16
2 7 16
2 8 7
2 9 12
2 10 15
3 4 17
3 5 21
3 6 7
3 7 16
3 8 27
3 9 12
3 10 13
4 5 11
4 6 1
4 7 15
4 8 20
4 9 22
4 10 29
5 6 18
5 7 25
5 8 9
5 9 10
5 10 9
6 7 9
6 8 1
6 9 18
6 10 7
7 8 16
7 9 14
7 10 5
8 9 26
8 10 0
9 10 16
